; benchmark generated from python API
(set-info :status unknown)
(define-funs-rec ( ( T2_12 ((x!1 Int)) Int)
                   ( e2_12 ((x!1 Int)) Int)
                   ( fe2_12 ((x!1 Int)) Int)
                   ( p2_12 ((x!1 Int)) Int)
                   ( T2_08 ((x!1 Int)) Int)
                   ( b2_08 ((x!1 Int)) Int))
                 ( (mod (+ ((_ e2_12 0) x!1) 1) 2)
                   (let ((a!1 ((_ fe2_12 0) (+ ((_ e2_12 0) (- x!1 1)) 1))))
                     (ite (= x!1 0) 0 a!1))
                   (ite (= (mod ((_ p2_12 0) x!1) 2) 0)
                        x!1
                        ((_ fe2_12 0) (+ x!1 1)))
                   (ite (= x!1 0) 0 (+ ((_ p2_12 0) (div x!1 2)) x!1))
                   (mod ((_ b2_08 0) x!1) 2)
                   (let ((a!1 (- ((_ b2_08 0) (+ (div x!1 2) (mod x!1 2)))
                                 ((_ b2_08 0) (div x!1 2)))))
                     (ite (< x!1 2) x!1 a!1))))
(assert
 (forall ((n Int) )(let ((?x250 ((_ T2_12 0) n)))
(let ((?x215 ((_ T2_08 0) n)))
(let (($x251 (= ?x215 ?x250)))
(let (($x296 (>= n 0)))
(=> $x296 $x251))))))
)
(check-sat)
